
--- Job main.gms Start 05/12/24 13:23:03 44.4.0 06604687 WEX-WEI x86 64bit/MS Windows
--- Applying:
    C:\GAMS\44\gmsprmNT.txt
--- GAMS Parameters defined
    Input C:\Users\sebas\Documents\CloudDrive\Uni\SS24\CaseStudies\gamsFiles\main.gms
    PageSize 0
    ScrDir C:\Users\sebas\Documents\CloudDrive\Uni\SS24\CaseStudies\gamsFiles\225a\
    SysDir C:\GAMS\44\
    LogOption 3
    ErrMsg 1
    ErrorLog 99
    IDE 1
    LstTitleLeftAligned 1
*** License has expired 17 days ago
Licensee: Course License Old Systems                     S231127/0001AO-GEN
          Dresden University of Technology                          DCE2432
          C:\Users\sebas\Documents\GAMS\gamslice.txt
          Course license for use within the course and related course work
Processor information: 1 socket(s), 8 core(s), and 16 thread(s) available
GAMS 44.4.0   Copyright (C) 1987-2023 GAMS Development. All rights reserved
--- Starting compilation
--- main.gms(5) 3 Mb
--- . testData.gms(11) 3 Mb
--- main.gms(55) 3 Mb
--- Starting execution: elapsed 0:00:00.009
--- Generating LP model caseStudies
--- main.gms(64) 4 Mb
---   34 rows  21 columns  77 non-zeroes
--- Range statistics (absolute non-zero finite values)
--- RHS       [min, max] : [ 5.000E+01, 2.000E+02] - Zero values observed as well
--- Bound     [min, max] : [        NA,        NA]
--- Matrix    [min, max] : [ 1.000E+00, 4.000E+02]
--- Executing CPLEX (Solvelink=2): elapsed 0:00:00.034

IBM ILOG CPLEX   44.4.0 06604687 Sep 19, 2023          WEI x86 64bit/MS Window

--- GAMS/CPLEX licensed for continuous and discrete problems.
--- GMO setup time: 0.00s
--- GMO memory 0.50 Mb (peak 0.50 Mb)
--- Dictionary memory 0.00 Mb
--- Cplex 22.1.1.0 link memory 0.00 Mb (peak 0.00 Mb)
--- Starting Cplex

Version identifier: 22.1.1.0 | 2022-11-27 | 9160aff4d
CPXPARAM_Advance                                 0
CPXPARAM_Threads                                 1
CPXPARAM_MIP_Display                             4
CPXPARAM_MIP_Pool_Capacity                       0
CPXPARAM_MIP_Tolerances_AbsMIPGap                0
Tried aggregator 1 time.
LP Presolve eliminated 17 rows and 6 columns.
Reduced LP has 16 rows, 15 columns, and 36 nonzeros.
Presolve time = 0.00 sec. (0.02 ticks)
Symmetry aggregator did 7 additional substitutions.

Iteration log . . .
Iteration:     1   Dual infeasibility =          1200.000000
Iteration:     4   Dual objective     =        -19800.000000

Dual crossover.
  Dual:  Fixing 4 variables.
        3 DMoves:  Infeasibility  0.00000000e+00  Objective  2.04500000e+04
        0 DMoves:  Infeasibility  0.00000000e+00  Objective  2.04500000e+04
  Dual:  Pushed 4, exchanged 0.
  Primal:  Fixed no variables.

--- LP status (1): optimal.
--- Cplex Time: 0.02sec (det. 0.07 ticks)


Optimal solution found
Objective:        20450.000000

--- Reading solution for model caseStudies
--- Executing after solve: elapsed 0:00:00.112
--- main.gms(66) 4 Mb
*** Status: Normal completion
--- Job main.gms Stop 05/12/24 13:23:03 elapsed 0:00:00.112
